data/lp_files/q3/48_4.lp
\ Model foo
\ LP format - for model browsing. Use MPS format to capture full model detail.
Minimize
  z
Subject To
 allocateEach[1]: x[1,1] + x[2,1] + x[3,1] = 1
 allocateEach[2]: x[1,2] + x[2,2] + x[3,2] = 1
 allocateEach[3]: x[1,3] + x[2,3] + x[3,3] = 1
 allocateEach[4]: x[1,4] + x[2,4] + x[3,4] = 1
 allocateEach[5]: x[1,5] + x[2,5] + x[3,5] = 1
 allocateEach[6]: x[1,6] + x[2,6] + x[3,6] = 1
 allocateEach[7]: x[1,7] + x[2,7] + x[3,7] = 1
 allocateEach[8]: x[1,8] + x[2,8] + x[3,8] = 1
 allocateAllCash: cashProportion[1] + cashProportion[2] + cashProportion[3]
   = 1
 findWorstP[1,2]: z + 0.0521463434983939 cashProportion[1]
   - 0.0521463434983939 cashProportion[2] + 0.139251595678111 x[1,1]
   + 0.1772975678945392 x[1,2] + 0.0762379541946519 x[1,3]
   + 0.1589420549831046 x[1,4] + 0.1598181135538776 x[1,5]
   + 0.0739017980059238 x[1,6] + 0.062241875599683 x[1,7]
   + 0.100162696591715 x[1,8] - 0.139251595678111 x[2,1]
   - 0.1772975678945392 x[2,2] - 0.0762379541946519 x[2,3]
   - 0.1589420549831046 x[2,4] - 0.1598181135538776 x[2,5]
   - 0.0739017980059238 x[2,6] - 0.062241875599683 x[2,7]
   - 0.100162696591715 x[2,8] >= 0
 findWorstP[1,3]: z + 0.0521463434983939 cashProportion[1]
   - 0.0521463434983939 cashProportion[3] + 0.139251595678111 x[1,1]
   + 0.1772975678945392 x[1,2] + 0.0762379541946519 x[1,3]
   + 0.1589420549831046 x[1,4] + 0.1598181135538776 x[1,5]
   + 0.0739017980059238 x[1,6] + 0.062241875599683 x[1,7]
   + 0.100162696591715 x[1,8] - 0.139251595678111 x[3,1]
   - 0.1772975678945392 x[3,2] - 0.0762379541946519 x[3,3]
   - 0.1589420549831046 x[3,4] - 0.1598181135538776 x[3,5]
   - 0.0739017980059238 x[3,6] - 0.062241875599683 x[3,7]
   - 0.100162696591715 x[3,8] >= 0
 findWorstP[2,1]: z - 0.0792820220086893 cashProportion[1]
   + 0.0792820220086893 cashProportion[2] - 7.2939460247994166e-04 x[1,1]
   - 0.0766181460691974 x[1,2] - 0.0573050455078806 x[1,3]
   - 0.2387657374813687 x[1,4] - 0.152253195065487 x[1,5]
   - 0.127326927345955 x[1,6] - 0.2458059810357403 x[1,7]
   - 0.0219135508832017 x[1,8] + 7.2939460247994166e-04 x[2,1]
   + 0.0766181460691974 x[2,2] + 0.0573050455078806 x[2,3]
   + 0.2387657374813687 x[2,4] + 0.152253195065487 x[2,5]
   + 0.127326927345955 x[2,6] + 0.2458059810357403 x[2,7]
   + 0.0219135508832017 x[2,8] >= 0
 findWorstP[2,3]: z + 0.0792820220086893 cashProportion[2]
   - 0.0792820220086893 cashProportion[3] + 7.2939460247994166e-04 x[2,1]
   + 0.0766181460691974 x[2,2] + 0.0573050455078806 x[2,3]
   + 0.2387657374813687 x[2,4] + 0.152253195065487 x[2,5]
   + 0.127326927345955 x[2,6] + 0.2458059810357403 x[2,7]
   + 0.0219135508832017 x[2,8] - 7.2939460247994166e-04 x[3,1]
   - 0.0766181460691974 x[3,2] - 0.0573050455078806 x[3,3]
   - 0.2387657374813687 x[3,4] - 0.152253195065487 x[3,5]
   - 0.127326927345955 x[3,6] - 0.2458059810357403 x[3,7]
   - 0.0219135508832017 x[3,8] >= 0
 findWorstP[3,1]: z - 0.0855373456050912 cashProportion[1]
   + 0.0855373456050912 cashProportion[3] - 0.1808259486091628 x[1,1]
   - 0.053477948472303 x[1,2] - 0.07879700277141 x[1,3]
   - 0.161357648749444 x[1,4] - 0.2877134156772847 x[1,5]
   - 0.0295617066411195 x[1,6] - 0.0782837786977795 x[1,7]
   - 0.0444452047764054 x[1,8] + 0.1808259486091628 x[3,1]
   + 0.053477948472303 x[3,2] + 0.07879700277141 x[3,3]
   + 0.161357648749444 x[3,4] + 0.2877134156772847 x[3,5]
   + 0.0295617066411195 x[3,6] + 0.0782837786977795 x[3,7]
   + 0.0444452047764054 x[3,8] >= 0
 findWorstP[3,2]: z - 0.0855373456050912 cashProportion[2]
   + 0.0855373456050912 cashProportion[3] - 0.1808259486091628 x[2,1]
   - 0.053477948472303 x[2,2] - 0.07879700277141 x[2,3]
   - 0.161357648749444 x[2,4] - 0.2877134156772847 x[2,5]
   - 0.0295617066411195 x[2,6] - 0.0782837786977795 x[2,7]
   - 0.0444452047764054 x[2,8] + 0.1808259486091628 x[3,1]
   + 0.053477948472303 x[3,2] + 0.07879700277141 x[3,3]
   + 0.161357648749444 x[3,4] + 0.2877134156772847 x[3,5]
   + 0.0295617066411195 x[3,6] + 0.0782837786977795 x[3,7]
   + 0.0444452047764054 x[3,8] >= 0
Bounds
 z <= 1
 -infinity <= cashProportion[1] <= 1
 -infinity <= cashProportion[2] <= 1
 -infinity <= cashProportion[3] <= 1
Binaries
 x[1,1] x[1,2] x[1,3] x[1,4] x[1,5] x[1,6] x[1,7] x[1,8] x[2,1] x[2,2]
 x[2,3] x[2,4] x[2,5] x[2,6] x[2,7] x[2,8] x[3,1] x[3,2] x[3,3] x[3,4]
 x[3,5] x[3,6] x[3,7] x[3,8]
End
